
Gurobi 9.0.1 (linux64) logging started Thu Apr 30 05:57:55 2020

Gurobi Optimizer version 9.0.1 build v9.0.1rc0 (linux64)
Optimize a model with 932 rows, 990 columns and 7056 nonzeros
Model fingerprint: 0x47b0ebd4
Variable types: 0 continuous, 990 integer (980 binary)
Coefficient statistics:
  Matrix range     [1e+00, 5e+00]
  Objective range  [3e+00, 1e+02]
  Bounds range     [1e+00, 1e+00]
  RHS range        [1e+00, 1e+00]

User MIP start produced solution with objective 501 (0.00s)
Loaded user MIP start with objective 501

Presolve removed 338 rows and 420 columns
Presolve time: 0.05s
Presolved: 594 rows, 570 columns, 4662 nonzeros
Variable types: 0 continuous, 570 integer (562 binary)

Root relaxation: objective 4.161476e+02, 537 iterations, 0.03 seconds

    Nodes    |    Current Node    |     Objective Bounds      |     Work
 Expl Unexpl |  Obj  Depth IntInf | Incumbent    BestBd   Gap | It/Node Time

     0     0  416.14759    0  209  501.00000  416.14759  16.9%     -    0s
     0     0  437.90777    0  232  501.00000  437.90777  12.6%     -    0s
     0     0  438.31078    0  230  501.00000  438.31078  12.5%     -    0s
     0     0  438.42799    0  231  501.00000  438.42799  12.5%     -    0s
     0     0  438.43320    0  231  501.00000  438.43320  12.5%     -    0s
     0     0  438.43321    0  231  501.00000  438.43321  12.5%     -    0s
     0     0  442.43100    0  237  501.00000  442.43100  11.7%     -    0s
     0     0  442.46268    0  242  501.00000  442.46268  11.7%     -    0s
     0     0  450.51387    0  231  501.00000  450.51387  10.1%     -    0s
     0     0  450.70893    0  231  501.00000  450.70893  10.0%     -    0s
     0     0  450.72038    0  230  501.00000  450.72038  10.0%     -    0s
     0     0  457.43230    0  249  501.00000  457.43230  8.70%     -    0s
     0     0  458.33962    0  256  501.00000  458.33962  8.52%     -    0s
     0     0  458.38859    0  257  501.00000  458.38859  8.51%     -    0s
     0     0  458.40505    0  257  501.00000  458.40505  8.50%     -    0s
     0     0  459.70316    0  236  501.00000  459.70316  8.24%     -    0s
     0     0  459.76057    0  238  501.00000  459.76057  8.23%     -    0s
     0     0  459.79792    0  231  501.00000  459.79792  8.22%     -    0s
     0     0  459.83066    0  238  501.00000  459.83066  8.22%     -    0s
     0     0  459.83514    0  238  501.00000  459.83514  8.22%     -    0s
     0     0  461.17728    0  251  501.00000  461.17728  7.95%     -    0s
     0     0  461.21740    0  251  501.00000  461.21740  7.94%     -    0s
     0     0  461.22557    0  247  501.00000  461.22557  7.94%     -    0s
     0     0  462.04566    0  252  501.00000  462.04566  7.78%     -    0s
     0     0  462.14447    0  253  501.00000  462.14447  7.76%     -    0s
     0     0  462.16831    0  253  501.00000  462.16831  7.75%     -    0s
     0     0  463.04842    0  247  501.00000  463.04842  7.58%     -    0s
     0     0  463.06918    0  243  501.00000  463.06918  7.57%     -    0s
     0     0  464.32792    0  250  501.00000  464.32792  7.32%     -    0s
     0     0  464.75238    0  251  501.00000  464.75238  7.24%     -    1s
     0     0  464.81890    0  253  501.00000  464.81890  7.22%     -    1s
     0     0  464.83071    0  252  501.00000  464.83071  7.22%     -    1s
     0     0  465.49025    0  255  501.00000  465.49025  7.09%     -    1s
     0     0  465.58082    0  253  501.00000  465.58082  7.07%     -    1s
     0     0  465.58674    0  254  501.00000  465.58674  7.07%     -    1s
     0     0  467.49730    0  241  501.00000  467.49730  6.69%     -    1s
     0     0  467.59147    0  242  501.00000  467.59147  6.67%     -    1s
     0     0  467.60566    0  242  501.00000  467.60566  6.67%     -    1s
     0     0  468.12180    0  246  501.00000  468.12180  6.56%     -    1s
     0     0  468.61447    0  247  501.00000  468.61447  6.46%     -    1s
     0     0  468.62901    0  246  501.00000  468.62901  6.46%     -    1s
     0     0  469.48596    0  249  501.00000  469.48596  6.29%     -    1s
     0     0  469.50113    0  249  501.00000  469.50113  6.29%     -    1s
     0     0  470.06619    0  250  501.00000  470.06619  6.17%     -    1s
     0     0  470.17165    0  252  501.00000  470.17165  6.15%     -    1s
     0     0  470.17739    0  252  501.00000  470.17739  6.15%     -    1s
     0     0  470.24912    0  251  501.00000  470.24912  6.14%     -    1s
     0     0  470.24912    0  251  501.00000  470.24912  6.14%     -    1s
     0     0  470.34043    0  199  501.00000  470.34043  6.12%     -    1s
     0     0  470.34043    0  230  501.00000  470.34043  6.12%     -    1s
     0     0  470.66177    0  232  501.00000  470.66177  6.06%     -    1s
     0     0  470.73984    0  235  501.00000  470.73984  6.04%     -    1s
     0     0  470.74177    0  235  501.00000  470.74177  6.04%     -    1s
     0     0  472.34478    0  229  501.00000  472.34478  5.72%     -    1s
     0     0  472.54936    0  228  501.00000  472.54936  5.68%     -    1s
     0     0  472.55043    0  228  501.00000  472.55043  5.68%     -    1s
     0     0  475.50711    0  228  501.00000  475.50711  5.09%     -    1s
     0     0  475.72964    0  229  501.00000  475.72964  5.04%     -    1s
     0     0  475.79469    0  235  501.00000  475.79469  5.03%     -    2s
     0     0  475.80978    0  235  501.00000  475.80978  5.03%     -    2s
     0     0  476.81785    0  224  501.00000  476.81785  4.83%     -    2s
     0     0  477.53147    0  229  501.00000  477.53147  4.68%     -    2s
     0     0  477.59490    0  231  501.00000  477.59490  4.67%     -    2s
     0     0  477.59741    0  230  501.00000  477.59741  4.67%     -    2s
     0     0  477.93455    0  234  501.00000  477.93455  4.60%     -    2s
     0     0  477.94380    0  233  501.00000  477.94380  4.60%     -    2s
     0     0  478.01516    0  229  501.00000  478.01516  4.59%     -    2s
     0     0  478.01516    0  227  501.00000  478.01516  4.59%     -    2s
     0     2  478.17280    0  227  501.00000  478.17280  4.56%     -    2s

Cutting planes:
  Cover: 1
  Clique: 4
  MIR: 24
  Zero half: 25
  RLT: 91

Explored 99 nodes (9751 simplex iterations) in 2.80 seconds
Thread count was 1 (of 40 available processors)

Solution count 1: 501 

Optimal solution found (tolerance 1.00e-04)
Best objective 5.010000000000e+02, best bound 5.010000000000e+02, gap 0.0000%

User-callback calls 1233, time in user-callback 0.00 sec
